21 72 39 67 23 41 22 75 56 74 73 2 13 
53 40 58 
18 83 45 46 47 36 49 10 20 66 71 35 51 70 
27 31 88 62 30 9 34 78 79 3 77 80 12 28 
95 92 96 89 52 69 1 76 68 29 24 54 4 55 25 26 
50 33 81 65 32 90 63 64 11 19 48 7 82 8 84 5 60 6 
57 42 15 43 14 38 44 98 99 59 97 87 37 100 91 16 86 17 61 85 93 94 
